qe/outputs/qe/qe_queries_cbrdelay_obs_redo/T=5,eliminate=[I_0,I_1,I_2,I_3,I_4,L_2,L_3,L_4,C,B,S_4,lhs=A_4_3].smt2
; benchmark generated from python API
(set-info :status unknown)
(declare-fun S_0 () Real)
(declare-fun S_1 () Real)
(declare-fun S_3 () Real)
(declare-fun A_2 () Real)
(declare-fun L_1 () Real)
(declare-fun A_1 () Real)
(declare-fun L_0 () Real)
(declare-fun A_0 () Real)
(declare-fun S_2 () Real)
(declare-fun A_3 () Real)
(declare-fun A_4 () Real)
(declare-fun loss_rate_tol () Real)
(assert
 (let (($x34 (>= L_0 0.0)))
 (let (($x69939 (<= 0.0 (+ (* (- (/ 3.0 4.0)) A_4) (* (/ 3.0 4.0) A_3) S_2 (* (- 1.0) S_0)))))
 (let (($x69940 (not $x69939)))
 (let ((?x4715 (* (/ 3.0 2.0) loss_rate_tol)))
 (let ((?x1162 (* (- 1.0) S_0)))
 (let ((?x3040 (* (/ 3.0 2.0) A_2)))
 (let ((?x4713 (* (- (/ 3.0 2.0)) A_4)))
 (let (($x68230 (not (<= 0.0 (+ ?x4713 ?x3040 S_2 ?x1162 ?x4715)))))
 (let (($x66552 (<= 0.0 (+ (* (/ 3.0 5.0) L_1) (* (- (/ 3.0 5.0)) A_4) (* (/ 8.0 5.0) S_2) ?x1162))))
 (let (($x66553 (not $x66552)))
 (let ((?x360 (* (- 1.0) S_1)))
 (let ((?x394 (* (- 1.0) A_4)))
 (let ((?x261 (* (- 1.0) L_1)))
 (let (($x66303 (not (<= 0.0 (+ ?x261 A_1 ?x394 A_3 ?x360 loss_rate_tol)))))
 (let (($x62328 (not (<= 0.0 loss_rate_tol))))
 (let (($x69352 (not (<= 0.0 (+ (* (- (/ 1.0 2.0)) A_4) (* (/ 1.0 2.0) A_3) S_2 ?x360)))))
 (let (($x68040 (not (<= 0.0 (+ ?x394 A_2 S_2 ?x360 loss_rate_tol)))))
 (let (($x66555 (<= 0.0 (+ (* (/ 2.0 5.0) L_1) (* (- (/ 2.0 5.0)) A_4) (* (/ 7.0 5.0) S_2) ?x360))))
 (let (($x66556 (not $x66555)))
 (let (($x67730 (not (<= 0.0 (+ L_1 (* (/ 7.0 3.0) S_3) ?x394 (* (- (/ 4.0 3.0)) S_1))))))
 (let (($x66351 (not (<= 0.0 (+ S_3 ?x4713 ?x3040 ?x360 ?x4715)))))
 (let ((?x2881 (* (- 1.0) loss_rate_tol)))
 (let ((?x391 (* (- 1.0) A_3)))
 (let ((?x373 (* (- 1.0) S_3)))
 (let (($x17639 (not (<= (+ ?x373 A_4 ?x391 S_2 ?x2881) 0.0))))
 (let (($x67351 (<= 0.0 (+ ?x261 A_1 ?x394 A_3 (* (- 1.0) A_0) loss_rate_tol L_0))))
 (let (($x67352 (not $x67351)))
 (let ((?x2758 (* (/ 1.0 2.0) loss_rate_tol)))
 (let ((?x2098 (* (/ 1.0 2.0) A_3)))
 (let ((?x2207 (* (- (/ 1.0 2.0)) A_4)))
 (let ((?x1519 (* (/ 1.0 2.0) S_3)))
 (let ((?x3031 (* (- (/ 1.0 2.0)) A_1)))
 (let ((?x1277 (* (/ 1.0 2.0) L_1)))
 (let (($x70730 (not (<= 0.0 (+ ?x1277 ?x3031 ?x1519 ?x2207 ?x2098 ?x2758)))))
 (let ((?x4158 (* 2.0 loss_rate_tol)))
 (let ((?x1099 (* (- 1.0) A_0)))
 (let ((?x2307 (* 2.0 A_3)))
 (let ((?x3592 (* (- 2.0) A_4)))
 (let (($x72310 (not (<= (- 5.0) (+ S_3 ?x3592 ?x2307 ?x1099 ?x4158 L_0)))))
 (let (($x69306 (not (<= 0.0 (+ (* (- (/ 1.0 4.0)) A_4) (* (/ 1.0 4.0) A_3) ?x1099 S_1 L_0)))))
 (let (($x67270 (not (<= 0.0 (+ ?x2207 (* (/ 1.0 2.0) A_2) ?x1099 S_1 ?x2758 L_0)))))
 (let (($x66783 (<= 0.0 (+ (* (/ 1.0 6.0) L_1) (* (- (/ 1.0 6.0)) A_4) ?x1099 (* (/ 7.0 6.0) S_1) L_0))))
 (let (($x66784 (not $x66783)))
 (let ((?x4714 (* (/ 3.0 2.0) A_3)))
 (let ((?x1503 (* (- (/ 1.0 2.0)) S_3)))
 (let ((?x3055 (* (/ 3.0 2.0) A_1)))
 (let ((?x4632 (* (- (/ 3.0 2.0)) L_1)))
 (let (($x69177 (not (<= 0.0 (+ ?x4632 ?x3055 ?x1503 ?x4713 ?x4714 ?x1162 ?x4715)))))
 (let (($x72302 (not (<= (- 5.0) (+ ?x1519 ?x4713 ?x4714 (* (- (/ 1.0 2.0)) S_0) ?x4715)))))
 (let (($x69877 (not (<= (- 5.0) (+ ?x261 A_1 ?x3592 ?x2307 ?x1162 ?x4158)))))
 (let (($x70601 (not (<= (- 10.0) (+ ?x3592 ?x2307 S_2 ?x360 ?x4158)))))
 (let (($x69443 (not (<= 0.0 (+ ?x2207 ?x2098 S_1 ?x1162)))))
 (let (($x69290 (not (<= 0.0 (+ ?x394 A_2 S_1 ?x1162 loss_rate_tol)))))
 (let (($x66564 (not (<= 0.0 (+ L_1 ?x394 (* 4.0 S_1) (* (- 3.0) S_0))))))
 (let ((?x17976 (* 3.0 loss_rate_tol)))
 (let ((?x3960 (* 3.0 A_3)))
 (let ((?x14416 (* (- 3.0) A_4)))
 (let ((?x17965 (+ ?x14416 ?x3960 S_2 ?x1162 ?x17976)))
 (let (($x70554 (not (<= (- 15.0) ?x17965))))
 (let (($x70300 (not (<= (- 5.0) (+ (* (- (/ 1.0 4.0)) A_4) (* (/ 1.0 4.0) A_3))))))
 (let ((?x366 (* (- 1.0) S_2)))
 (let ((?x1122 (* 2.0 A_1)))
 (let ((?x1142 (* (- 2.0) L_1)))
 (let (($x69402 (not (<= 0.0 (+ ?x1142 ?x1122 ?x3592 ?x2307 ?x366 ?x1162 ?x4158)))))
 (let (($x67462 (not (<= (- 5.0) (+ (* (/ 1.0 6.0) L_1) (* (- (/ 1.0 6.0)) A_4) (* (/ 1.0 6.0) S_1))))))
 (let ((?x6261 (* (/ 1.0 3.0) loss_rate_tol)))
 (let ((?x2633 (* (- (/ 1.0 3.0)) A_4)))
 (let ((?x1498 (* (/ 1.0 3.0) A_1)))
 (let ((?x6266 (+ ?x1498 ?x2633 ?x6261)))
 (let (($x66878 (not (<= (- 5.0) ?x6266))))
 (let ((?x31183 (* (/ 4.0 3.0) loss_rate_tol)))
 (let ((?x31181 (* (- (/ 4.0 3.0)) A_4)))
 (let ((?x3017 (* (/ 4.0 3.0) A_1)))
 (let (($x71066 (not (<= 0.0 (+ ?x3017 S_3 ?x31181 ?x1162 ?x31183)))))
 (let (($x67622 (not (<= 0.0 (+ L_1 (* 2.0 S_3) ?x394 ?x1162)))))
 (let (($x69318 (not (<= 0.0 (+ ?x2207 ?x2098 ?x1099 S_2 L_0)))))
 (let (($x67291 (not (<= 0.0 (+ ?x394 A_2 ?x1099 S_2 loss_rate_tol L_0)))))
 (let (($x66621 (<= 0.0 (+ (* (/ 2.0 5.0) L_1) (* (- (/ 2.0 5.0)) A_4) ?x1099 (* (/ 7.0 5.0) S_2) L_0))))
 (let (($x66622 (not $x66621)))
 (let (($x67522 (<= 0.0 (+ (* (/ 3.0 4.0) L_1) (* (/ 7.0 4.0) S_3) (* (- (/ 3.0 4.0)) A_4) ?x1099 L_0))))
 (let (($x67523 (not $x67522)))
 (let (($x66312 (not (<= 0.0 (+ S_3 ?x4713 ?x3040 ?x1099 ?x4715 L_0)))))
 (let ((?x6258 (* (/ 2.0 3.0) loss_rate_tol)))
 (let ((?x4217 (* (- (/ 2.0 3.0)) A_4)))
 (let ((?x665 (* (/ 2.0 3.0) A_1)))
 (let (($x70370 (not (<= 0.0 (+ ?x665 ?x4217 S_2 ?x360 ?x6258)))))
 (let (($x70074 (not (<= 0.0 (+ S_3 ?x3592 ?x2307 ?x366 ?x4158)))))
 (let (($x67520 (not (<= 0.0 (+ ?x1277 (* (/ 3.0 2.0) S_3) ?x2207 ?x366)))))
 (let (($x69952 (<= (- 5.0) (+ ?x394 A_3 (* (/ 1.0 2.0) S_1) (* (- (/ 1.0 2.0)) S_0) loss_rate_tol))))
 (let (($x69953 (not $x69952)))
 (let (($x73695 (not (<= (- 5.0) (+ S_3 ?x3592 ?x2307 ?x360 ?x4158)))))
 (let (($x75212 (not (<= (- 5.0) (+ L_1 ?x394 (* 2.0 S_2) ?x360 loss_rate_tol)))))
 (let (($x66408 (not (<= 0.0 (+ S_3 ?x3592 (* 2.0 A_2) ?x1162 ?x4158)))))
 (let (($x70398 (not (<= 0.0 (+ A_1 S_3 ?x394 ?x360 loss_rate_tol)))))
 (let ((?x12262 (* 4.0 loss_rate_tol)))
 (let ((?x16472 (* 4.0 A_3)))
 (let ((?x14763 (* (- 4.0) A_4)))
 (let (($x68191 (not (<= 0.0 (+ S_3 ?x14763 ?x16472 ?x1162 ?x12262)))))
 (let (($x69122 (not (<= 0.0 (+ ?x665 ?x4217 S_1 ?x1162 ?x6258)))))
 (let (($x72118 (<= (- 5.0) (+ L_1 ?x394 (* (/ 5.0 2.0) S_1) (* (- (/ 3.0 2.0)) S_0) loss_rate_tol))))
 (let (($x72119 (not $x72118)))
 (let (($x71701 (not (<= (- 10.0) (+ ?x3592 ?x2307 ?x1099 S_2 ?x4158 L_0)))))
 (let (($x69832 (not (<= (- (/ 15.0 2.0)) (+ (* (/ 3.0 2.0) L_1) ?x4713 (* (/ 5.0 2.0) S_2) ?x1162 ?x4715)))))
 (let (($x68627 (not (<= (- 5.0) (+ (* (/ 1.0 5.0) L_1) (* (- (/ 1.0 5.0)) A_4) (* (/ 1.0 5.0) S_2))))))
 (let (($x68852 (not (<= (- 5.0) (+ ?x261 A_1 ?x394 A_3 ?x366 loss_rate_tol)))))
 (let (($x66264 (not (<= (- 5.0) (+ A_1 (* (- 1.0) A_2))))))
 (let (($x58920 (not (<= (- 35.0) (+ L_1 ?x394 S_0)))))
 (let (($x69579 (<= 0.0 (+ L_1 (* (- 1.0) A_1) (* (- (/ 1.0 4.0)) A_4) (* (/ 1.0 4.0) A_3) S_2))))
 (let (($x69580 (not $x69579)))
 (let (($x66071 (not (<= 0.0 (+ L_1 (* (- (/ 5.0 6.0)) A_1) (* (- (/ 1.0 6.0)) A_4) S_2)))))
 (let (($x65506 (<= 0.0 (+ L_1 (* (- 1.0) A_1) (* (/ 1.0 2.0) A_2) ?x2207 S_2 ?x2758))))
 (let (($x65987 (not $x65506)))
 (let ((?x386 (* (- 1.0) A_1)))
 (let ((?x17963 (+ L_1 ?x386 ?x394 A_3 S_2 loss_rate_tol)))
 (let (($x71388 (<= 0.0 (+ L_1 A_1 ?x394 S_2 ?x1162 loss_rate_tol (* (- 1.0) L_0)))))
 (let (($x71389 (not $x71388)))
 (let (($x51 (= L_1 L_0)))
 (let (($x8568 (not $x51)))
 (let (($x70307 (not (<= 0.0 (+ A_1 S_3 ?x394 ?x1099 loss_rate_tol L_0)))))
 (let (($x71477 (<= (- 5.0) (+ L_1 ?x394 ?x1099 (* 2.0 S_2) loss_rate_tol L_0))))
 (let (($x67683 (not (<= (- 5.0) (+ (* (/ 1.0 4.0) L_1) (* (/ 1.0 4.0) S_3) (* (- (/ 1.0 4.0)) A_4))))))
 (let (($x71164 (not (<= 0.0 (+ A_1 ?x394 S_2 ?x1162 loss_rate_tol)))))
 (let (($x66241 (not (<= (- 10.0) (+ ?x394 A_3 loss_rate_tol)))))
 (let (($x150556 (or $x62328 $x66241 $x68627 $x70300 (not (<= (- (/ 15.0 2.0)) (+ ?x1277 ?x2207 (* (/ 1.0 2.0) S_2) ?x2758))))))
 (let (($x64263 (not (<= (- 5.0) (+ (* (/ 1.0 6.0) A_1) (* (- (/ 1.0 6.0)) A_4))))))
 (let (($x75391 (or $x58920 $x62328 $x64263 $x66241 (not (<= (- 25.0) (+ L_1 ?x394 S_0 loss_rate_tol))) $x70300 (not (<= (- (/ 20.0 3.0)) ?x6266)))))
 (let (($x67276 (not (<= 0.0 (+ ?x1498 ?x2633 ?x1099 S_1 ?x6261 L_0)))))
 (let (($x4856 (<= (+ (* (- (/ 2.0 3.0)) L_1) ?x373 (* (/ 2.0 3.0) A_3) (* (/ 1.0 3.0) S_0)) 0.0)))
 (let (($x70103 (not (<= (- (/ 5.0 2.0)) (+ (* (/ 3.0 2.0) L_1) ?x386 ?x2207 (* (/ 3.0 2.0) S_2) ?x2758)))))
 (let (($x60771 (not (<= (- 5.0) ?x17963))))
 (let (($x73693 (or $x58920 $x62328 $x66303 $x66878 (not (<= 0.0 (+ ?x1122 (* (- 2.0) A_2) S_2 ?x360))) $x70300)))
 (let (($x69767 (not (<= (- 20.0) (+ L_1 ?x394 S_1 loss_rate_tol)))))
 (let (($x62912 (not (<= (- 10.0) (+ ?x394 A_2 loss_rate_tol)))))
 (let (($x72033 (not (<= (- 5.0) (+ ?x394 A_3 ?x1099 S_1 loss_rate_tol L_0)))))
 (let ((?x1571 (* 4.0 S_1)))
 (let (($x69472 (<= (- 5.0) (+ L_1 ?x394 (* (- 3.0) A_0) ?x1571 loss_rate_tol (* 3.0 L_0)))))
 (let ((?x1638 (* 2.0 S_3)))
 (let ((?x1462 (* (- 2.0) A_1)))
 (let ((?x1363 (* 2.0 L_1)))
 (let (($x68298 (not (<= 0.0 (+ ?x1363 ?x1462 ?x1638 ?x394 A_2 loss_rate_tol)))))
 (let (($x67939 (not (<= 0.0 (+ ?x394 A_3 ?x1099 S_1 loss_rate_tol L_0)))))
 (let (($x67540 (not (<= 0.0 (+ (* 3.0 L_1) ?x1462 (* 3.0 S_3) ?x394)))))
 (let (($x73261 (or $x62328 $x67540 (not (<= 0.0 (+ L_1 ?x386 S_3 ?x3592 ?x2307 ?x4158))))))
 (let (($x73256 (or $x62328 (not (<= 0.0 (+ L_1 ?x386 S_3 A_2 ?x394 loss_rate_tol))) $x67540)))
 (let (($x70282 (not (<= 0.0 (+ ?x665 ?x4217 ?x1099 S_2 ?x6258 L_0)))))
 (let (($x66243 (not (<= 0.0 (+ S_3 ?x394 A_2 ?x366 loss_rate_tol)))))
 (let (($x69534 (not (<= 0.0 (+ ?x3592 ?x2307 ?x1099 S_2 ?x4158 L_0)))))
 (let (($x68590 (not (<= 0.0 (+ S_3 ?x14416 ?x3960 ?x1099 ?x17976 L_0)))))
 (let (($x65422 (not (<= (- 5.0) (+ ?x394 A_3 loss_rate_tol)))))
 (let (($x147524 (or $x51 $x62328 (not (<= (- 5.0) (+ L_1 (* (- (/ 2.0 3.0)) A_1) ?x2633 S_2 ?x6261))) (not (<= (- 10.0) ?x17963)))))
 (let (($x66916 (<= 0.0 (+ L_1 ?x386 ?x391 A_2 S_2))))
 (let (($x70322 (or $x51 $x62328 $x66916 (not (<= (- 5.0) (+ L_1 ?x386 ?x2207 (* (/ 1.0 2.0) A_2) S_2 ?x2758))))))
 (let (($x69053 (or $x51 $x62328 (not $x66916) (not (<= (- 5.0) (+ ?x1277 ?x3031 ?x2207 ?x2098 (* (/ 1.0 2.0) S_2) ?x2758))))))
 (let (($x68774 (or $x51 $x62328 $x68298 (not (<= (- 5.0) (+ L_1 ?x386 S_3 ?x394 A_3 loss_rate_tol))))))
 (let (($x1337 (<= (+ ?x261 A_1 ?x366) 0.0)))
 (let (($x65407 (or $x51 (<= (+ L_1 ?x386 (* (/ 1.0 2.0) S_2) (* (/ 1.0 2.0) S_0)) (- 5.0)))))
 (let (($x461 (or (<= (+ ?x1503 (* (/ 1.0 2.0) S_0)) (- 5.0)) (<= (+ ?x261 A_1 ?x373) (- 5.0)))))
 (let (($x114 (>= S_3 S_2)))
 (let (($x108 (>= S_1 S_0)))
 (let (($x111 (>= S_2 S_1)))
 (let (($x119 (>= A_1 A_0)))
 (let (($x121 (>= A_3 A_2)))
 (let (($x122 (>= A_4 A_3)))
 (and (<= (+ A_1 ?x261) S_3) $x122 $x121 $x119 $x111 $x108 $x114 (or (not (<= 0.0 (+ ?x261 L_0))) $x51) (or $x51 (<= (+ L_1 ?x386 S_1) (- 5.0))) $x461 $x65407 (or $x1337 (<= (+ (* (/ 1.0 3.0) S_3) ?x366 (* (/ 2.0 3.0) S_0)) 0.0)) (or $x51 (<= (+ L_1 ?x386 S_0) (- 10.0))) (<= (+ ?x373 ?x1099 (* 2.0 S_1) L_0) 0.0) (or $x51 (not (<= 0.0 (+ L_1 ?x386 S_3 ?x366 S_0)))) (or $x1337 (<= (+ ?x366 S_0) (- 5.0))) (or $x51 $x62328 $x66243) (or $x51 (not (<= (- 5.0) (+ ?x1363 ?x1462 S_3 S_0)))) $x68774 $x69053 (or $x51 $x62328 $x68298 $x69402) (or $x51 $x62328 $x67270 $x67352) (or $x51 $x62328 $x70307) $x70322 (or $x51 $x62328 $x66878 $x67352) (or $x51 $x62328 $x66878 $x69177) (or $x51 $x62328 $x67291 $x67352) (or $x51 $x62328 (not (<= 0.0 ?x17965))) (or $x51 $x62328 (not (<= 0.0 (+ ?x665 S_3 ?x4217 ?x366 ?x6258)))) (or $x62328 $x67520 (not (<= 0.0 (+ ?x665 S_3 ?x4217 ?x366 ?x6258)))) (or $x51 $x62328 $x66878 $x69877) $x147524 (or $x58920 $x62328 $x64263 $x65422 $x70300) (or $x62328 $x66312 $x67523 $x70730) (or $x51 $x62328 $x67939) (or $x51 $x62328 $x70074) (or $x51 $x62328 $x68590) (or $x51 $x62328 (not (<= 0.0 (+ S_3 ?x14416 ?x3960 ?x360 ?x17976)))) (or $x51 $x62328 $x68191) (or $x51 $x17639 $x62328 $x68298) (or $x51 $x62328 $x66303 $x68040) (or $x62328 $x65422 $x67683) (or $x62328 $x65422 $x68627 $x70300) (or $x51 $x62328 $x62912) (or $x51 $x62328 $x66408 $x69177) (or $x51 $x62328 $x68298 $x69177) (or $x62328 $x66622 $x69318 $x69534) (or $x51 $x62328 (not (<= 0.0 (+ ?x3592 ?x2307 S_1 ?x1162 ?x4158)))) (or $x60771 $x62328 $x65987 $x66071 $x69580) (or $x62328 $x66622 $x67352 $x69318 $x70282) (or $x62328 $x66241 $x67683 $x69767) (or $x62328 $x67523 $x68590) (or $x51 $x62328 $x67352 $x68298) (or $x51 $x62328 $x69177 $x71164) (or $x51 $x62328 $x67276 $x67352) (or $x51 $x62328 $x69534) (or $x51 $x62328 $x67352 $x68230) (or $x51 $x62328 $x68230 $x69177) (or $x62328 $x67520 $x66243) (or $x51 $x62328 $x65422) (or $x62328 $x65422 $x67462 $x70300) (or $x62328 $x66564 $x69290 $x69402 $x69443) (or $x62328 $x67730 (not (<= 0.0 (+ S_3 ?x14416 ?x3960 ?x360 ?x17976)))) (or $x62328 $x66241 $x66878 $x67462 $x70300) (or $x51 $x62328 $x67352 $x70282) $x73256 $x73261 (or $x62328 $x66408 $x67622 $x70730) (or $x51 $x62328 $x69177 $x69290) (or $x62328 $x66408 $x67622 $x69877) (or $x62328 $x66408 $x67622 $x72302) (or $x62328 $x66351 $x67730 $x70730) (or $x51 $x62328 $x66241 $x66878) (or $x51 $x62328 $x66303 $x68298) (or $x62328 $x66878 $x67462 $x68852 $x70300) (or $x51 $x62328 $x69877 $x71066) (or $x51 $x62328 $x69177 $x71066) (or $x62328 $x66408 $x67352 $x67622) (or $x62328 $x66312 $x67352 $x67523) (or $x62328 $x66784 $x67270 $x67352 $x69306) (or $x62328 $x62912 $x67683) (or $x62328 $x66784 $x67270 $x69306 $x72033) (or $x62328 $x66564 $x69290 $x69443 $x70730) (or $x62328 $x62912 $x67462 $x70300) (or $x51 $x62328 $x69402 $x71066) (or $x51 $x62328 $x69122 $x69177) (or $x8568 $x62328 $x66303 $x66553 $x69940 $x71389) (or $x51 $x60771 $x62328) (or $x62328 $x66784 $x67939 $x69306) (or $x51 $x62328 $x70730) (or $x51 $x62328 $x66878 $x68852) (or $x51 $x62328 $x70398) (or $x51 $x62328 $x66303 $x66878) (or $x51 $x62328 $x66312 $x67352) (or $x51 $x62328 $x67352 $x71164) (or $x51 $x62328 $x67352 $x69290) (or $x51 $x62328 $x66408 $x67352) (or $x51 $x62328 $x66408 $x69877) (or $x62328 $x66241 $x66878 $x68627 $x70300) (or $x62328 $x62912 $x68627 $x70300) (or $x51 $x62328 $x69877 $x71164) (or $x51 $x62328 $x69122 $x69402) (or $x8568 $x62328 $x66553 $x67352 $x69318 $x71389) (or $x51 $x62328 $x66878 $x69402) (or $x51 $x62328 $x67352 $x71066) (or $x51 $x62328 $x66408 $x69402) (or $x62328 $x66408 $x67622 $x69402) (or $x17639 $x62328 $x66312 $x67523) (or $x51 $x62328 $x68298 $x69877) (or $x62328 $x66564 $x69290 $x69443 $x69877) (or $x62328 $x66784 $x69306 (not $x69472) $x72033) (or $x58920 $x62328 $x66241 $x66264 $x66878 $x70300) (or $x58920 $x62328 $x62912 $x64263 $x70300) (or $x51 $x62328 $x68230 $x69877) (or $x17639 $x62328 $x66408 $x67622) (or $x51 $x62328 $x69290 $x69402) (or $x51 $x62328 $x67352 $x69122) (or $x51 $x62328 $x66303 $x66351) (or $x51 $x62328 $x69122 $x69877) (or $x8568 $x62328 $x66553 $x67352 $x69940 $x71389) (or $x62328 $x66564 $x67352 $x69290 $x69443) (or $x51 $x62328 $x69290 $x69877) (or $x62328 $x66241 $x67462 $x69767 $x70300) (or $x51 $x62328 (not (<= 0.0 (+ ?x3592 ?x2307 S_2 ?x360 ?x4158)))) (or $x58920 $x62328 $x66264 $x66878 $x67352 $x70300) $x73693 (or $x58920 $x62328 $x66264 $x66303 $x66878 $x70300) (or $x60771 $x62328 $x66071 $x69580 $x70103) (or $x51 $x62328 $x66303 $x68230) (or $x51 $x4856 $x62328 $x70370) (or $x51 $x62328 $x66303 $x70370) (or $x62328 $x66553 (not (<= 0.0 ?x17965)) $x69443) (or $x62328 $x66553 (not (<= 0.0 ?x17965)) $x69940) (or $x62328 $x66784 $x67276 $x67352 $x69306) $x75391 $x150556 (or $x51 $x62328 $x66303 $x71164) (or $x51 $x62328 $x66303 $x66408) (or $x51 $x62328 $x66303 $x71066) (or $x62328 $x66878 $x67683 $x69402) (or $x62328 $x66878 $x67683 $x69177) (or $x62328 $x66241 $x66878 $x67683) (or $x62328 $x66303 $x66878 $x67683) (or $x62328 $x66878 $x67352 $x67683) (or $x62328 $x66878 $x67683 $x68852) (or $x62328 $x66878 $x67683 $x69877) (or $x62328 $x66622 $x69318 (not $x71477) $x71701) (or $x62328 $x73695 $x67730 $x66351) (or $x62328 $x66878 $x67352 $x67462 $x70300) (or $x62328 $x67523 $x70307) (or $x62328 $x67352 $x67622 $x71066) (or $x8568 $x62328 $x66553 $x69877 $x69940 $x71389) (or $x8568 $x62328 $x66553 $x69177 $x69940 $x71389) (or $x62328 $x67622 $x69953 $x72119) (or $x62328 $x66564 $x69122 $x69402 $x69443) (or $x62328 $x66071 $x69580 (not (<= 0.0 ?x17963))) (or $x62328 $x66408 $x67622 $x72310) (or $x62328 $x65987 $x66071 $x69580 $x70730) (or $x62328 $x67622 $x69877 $x71066) (or $x62328 $x66878 $x67462 $x69877 $x70300) (or $x62328 $x66878 $x68627 $x69877 $x70300) (or $x58920 $x62328 $x66264 $x66878 $x68852 $x70300) (or $x62328 $x66878 $x67352 $x68627 $x70300) (or $x62328 $x66878 $x68627 $x69177 $x70300) (or $x62328 $x66303 $x66878 $x68627 $x70300) (or $x62328 $x66878 $x67462 $x69177 $x70300) (or $x62328 $x66553 $x69832 $x69940 $x70554) (or $x62328 $x66622 $x67291 $x67352 $x69318) (or $x62328 $x66564 $x69122 $x69443 $x69877) (or $x62328 $x67622 $x69402 $x71066) (or $x62328 $x66622 $x67291 $x69318 $x71701) (or $x62328 $x66564 $x69177 $x69290 $x69443) (or $x62328 $x66564 $x69122 $x69177 $x69443) (or $x62328 $x66564 $x69443 (not (<= 0.0 (+ ?x3592 ?x2307 S_1 ?x1162 ?x4158)))) (or $x62328 $x66564 $x69443 $x69953 $x72119) (or $x62328 $x66564 $x67352 $x69122 $x69443) (or $x62328 $x66556 $x68040 $x69352 $x70730) (or $x62328 $x67622 $x68191) (or $x62328 $x66303 $x66408 $x67622) (or $x62328 $x66408 $x67622 $x73695) (or $x62328 $x67622 $x69290 $x69953) (or $x62328 $x66303 $x67622 $x71066) (or $x62328 $x66303 $x66351 $x67730) (or $x62328 $x67730 $x70398) (or $x62328 $x66408 $x67622 $x69177) (or $x62328 $x66556 $x69352 $x70601 $x75212) (or $x62328 $x66556 $x68040 $x69352 $x73695) (or $x62328 $x66553 $x68230 $x69940 $x73695) (or $x62328 $x66564 $x69290 $x69953 $x70300) (or $x62328 $x66564 $x69290 $x69443 $x69953) (or $x62328 $x67520 $x70074) (or $x62328 $x66303 $x66556 $x69352 $x70370) (or $x62328 $x66622 $x67291 $x69318 $x72310) (or $x62328 $x66312 $x67523 $x72310) (or $x17639 $x62328 $x66564 $x69290 $x69443) (or $x62328 $x66622 $x67291 $x69318 $x70730) (or $x62328 $x67622 $x69177 $x71066) (or $x62328 $x66878 $x67462 $x69402 $x70300) (or $x17639 $x62328 $x66784 $x67270 $x69306) (or $x62328 $x66784 $x67270 $x69306 $x70730) (or $x62328 $x66553 $x68230 $x69940 $x70554) (or $x62328 $x69352 $x66556 (not (<= 0.0 (+ ?x3592 ?x2307 S_2 ?x360 ?x4158)))) (or $x62328 $x66564 $x69290 $x69443 $x72302) (or $x62328 $x66564 $x69290 $x69443 $x72310) (or $x62328 $x66556 $x68040 $x69352 $x70601) (or $x62328 $x66553 $x68230 $x69940 $x72310) (or $x62328 $x66553 $x68230 $x69877 $x69940) (or $x62328 $x66553 $x68230 $x69940 $x72302) (or $x62328 $x66553 $x68230 $x69177 $x69940) (or $x62328 $x66784 $x67270 $x69306 $x72310) (or $x62328 $x66553 $x68230 $x69940 $x70730) (or $x62328 $x66553 $x67352 $x68230 $x69940) (or $x17639 $x62328 $x66351 $x67730) (or $x62328 $x66303 $x66556 $x68040 $x69352) (or $x62328 $x66303 $x66553 $x68230 $x69940) $x34 (<= (+ ?x1099 S_0 L_0) 0.0) (<= (+ L_1 ?x386 S_1) 0.0) (not (>= (+ L_1 S_3 (* (- 1.0) A_2)) 0.0)) (<= (+ ?x373 S_1) (- 5.0)) (<= (+ ?x373 (* (/ 3.0 2.0) S_1) (* (- (/ 1.0 2.0)) S_0)) 0.0))))))))))))))))))))))))))))))))))))))))))))))))))))))))))))))))))))))))))))))))))))))))))))))))))))))))))))))))))))))))))))))))))))))))))))))))))))))))))))))))))))))
(check-sat)
